112
0 54 105 104 10 17 51 103 85 22 
106 83 68 88 101 80 37 21 35 63 
6 107 47 49 53 34 71 12 108 66 
13 44 60 110 72 31 46 38 39 41 
33 7 86 73 23 58 111 24 50 15 
79 27 65 76 67 99 1 48 59 29 
57 9 16 55 78 43 100 109 84 77 
95 4 56 18 91 30 14 2 74 97 
28 98 8 87 93 69 75 70 26 92 
36 94 5 45 3 61 19 90 62 20 
42 11 102 40 25 64 82 32 96 52 
81 89 
